! B3LYP def2-TZVP TightSCF Opt CPCM(water)

%tddft
   nroots 10
   maxdim 50
end

* xyz 0 1
O          6.75920        2.05802        1.36918
C          6.11075        1.83258        0.35664
O          6.71832        1.50985       -0.79749
C          4.62673        2.05070        0.31542
C          4.06260        2.52887        1.51150
C          2.71221        2.88135        1.59866
C          1.89552        2.79436        0.48734
C          2.42439        2.31003       -0.69823
C          3.76895        1.89429       -0.78222
S          4.15211        1.04725       -2.29114
C          3.06441       -0.34799       -2.03438
C          1.82795       -0.43365       -2.65860
C          1.05950       -1.64061       -2.63260
N         -0.25432       -1.60352       -3.16107
C         -0.78211       -0.54676       -3.96349
C         -0.05010       -0.09122       -5.07433
C         -0.36650        1.09695       -5.73680
C         -1.47031        1.85020       -5.34045
C         -1.79892        3.13563       -6.04647
C         -2.26103        1.37058       -4.28632
C         -1.91492        0.19134       -3.59323
C          1.73823       -2.79125       -2.20402
C          3.05263       -2.65057       -1.81197
C          3.47414       -1.46311       -1.35440
N          4.58357       -1.54361       -0.51969
C          5.67031       -1.94273       -1.23510
O          6.75224       -1.43200       -1.02963
C          5.45494       -3.09795       -2.23063
C          4.16136       -3.59900       -2.35863
C          3.47339       -4.81108       -2.99429
C          3.32815       -5.11960       -4.34970
C          2.34280       -6.06646       -4.76202
C          1.61426       -6.81907       -3.83135
C          1.72037       -6.49112       -2.49672
C          2.36648       -5.28547       -2.22268
C          1.29890       -4.17967       -2.02171
O          0.14552       -4.40302       -1.70061
C          6.88405       -3.41407       -2.73070
O          7.58402       -4.29406       -2.25124
O          7.33750       -2.38308       -3.53701
C          8.72811       -2.34538       -3.99654
C          9.61949       -1.23159       -3.42018
H          6.15410        1.01989       -1.42591
H          4.68593        2.63902        2.39670
H          2.30841        3.24402        2.53925
H          0.84874        3.08035        0.53131
H          1.76125        2.22716       -1.55902
H          1.43558        0.45718       -3.13261
H         -0.93061       -2.04182       -2.53391
H          0.83319       -0.64218       -5.39319
H          0.27535        1.43797       -6.54604
H         -0.99804        3.42627       -6.73713
H         -1.91564        3.95372       -5.32802
H         -2.71922        3.02812       -6.62813
H         -3.14252        1.93357       -3.97854
H         -2.52483       -0.10933       -2.74575
H          4.41670       -2.29683        0.15353
H          3.82553       -4.54005       -5.12241
H          2.08595       -6.18102       -5.81540
H          0.86769       -7.55082       -4.13923
H          1.04410       -6.93315       -1.76681
H          8.67490       -2.15989       -5.07606
H          9.22119       -3.31119       -3.85780
H          9.18085       -0.23432       -3.53300
H         10.58688       -1.21627       -3.94796
H          9.84105       -1.38044       -2.35904
*